language ESSENCE' 1.0

letting jobs = 102
letting horizon = 812
letting resourcesRenew = 2
letting resourcesNonrenew = 2
letting resourceLimits = [18, 17, 540, 535]
letting successors = [[2, 3, 4, 5, 6, 7, 8, 9, 10, 11, 13, 16, 17, 20, 23, 28], [36, 32, 29, 25, 19, 15, 14, 12], [60, 53, 50, 47, 45, 41, 40, 38, 35, 34, 32, 31, 25, 21], [53, 50, 45, 41, 40, 38, 34, 33, 32, 31, 27, 26, 25, 24], [60, 43, 40, 38, 33, 32, 30, 25, 22, 19], [49, 41, 33, 32, 30, 27, 19, 18], [50, 45, 41, 35, 34, 33, 32, 30, 27, 26, 25, 24], [53, 50, 48, 44, 43, 42, 36, 34, 33, 31, 29, 27, 25], [43, 30, 27, 19, 18], [63, 59, 55, 51, 50, 48, 45, 43, 41, 40, 37, 35, 32, 31, 30, 27], [55, 40, 38, 37, 34, 33, 30, 26, 19], [59, 58, 53, 50, 49, 44, 43, 41, 40, 39, 37, 33, 31, 27], [60, 43, 40, 33, 30, 26, 19], [58, 53, 50, 47, 45, 44, 37, 34, 33, 26, 24], [64, 60, 55, 53, 52, 50, 47, 39, 38, 37, 35, 34, 31], [71, 59, 58, 50, 48, 44, 43, 34, 30, 27, 26], [64, 62, 60, 59, 54, 53, 50, 47, 45, 42, 40, 35, 34, 33], [64, 60, 59, 57, 56, 53, 52, 48, 47, 45, 44, 40, 25], [78, 71, 68, 67, 65, 64, 63, 62, 59, 58, 54, 53, 52, 51, 50, 48, 46, 45, 44, 42], [68, 63, 58, 56, 50, 43, 40, 27, 26], [59, 56, 54, 49, 48, 44, 43, 33, 26], [78, 76, 71, 64, 56, 54, 52, 51, 50, 47, 46, 45, 34], [78, 68, 63, 62, 60, 58, 56, 53, 48, 45, 44, 40], [83, 76, 68, 67, 64, 63, 62, 59, 56, 54, 52, 51, 48, 46], [78, 68, 65, 62, 58, 55, 54, 37], [101, 98, 83, 78, 77, 76, 74, 67, 65, 64, 62, 57, 46], [100, 78, 77, 66, 60, 57, 54, 52, 47], [101, 100, 83, 80, 78, 77, 76, 74, 71, 68, 64, 57, 52], [101, 81, 78, 77, 76, 75, 74, 68, 66, 65, 64, 62, 61, 59], [101, 83, 76, 74, 67, 56, 52, 46], [101, 93, 83, 77, 76, 74, 73, 72, 70, 69, 67, 62, 56], [101, 78, 75, 74, 71, 64, 62, 44], [101, 98, 83, 78, 76, 74, 69, 66, 65, 63, 61, 51], [98, 83, 70, 69, 67, 63, 57, 49], [101, 83, 81, 77, 75, 74, 72, 71, 68, 66, 65, 61, 58], [101, 78, 77, 73, 69, 68, 66, 62, 54], [101, 83, 77, 76, 71, 67, 66, 46], [101, 99, 83, 82, 81, 79, 78, 75, 74, 73, 72, 71, 66, 61], [99, 98, 83, 81, 78, 73, 67, 63, 54], [101, 98, 95, 76, 69, 67, 46], [101, 100, 99, 98, 93, 91, 78, 73, 72, 69, 66, 64], [100, 98, 96, 95, 94, 93, 91, 83, 80, 79, 77, 76, 75, 73, 72, 70], [96, 94, 83, 82, 81, 79, 78, 77, 73, 72, 70, 65], [83, 82, 81, 79, 76, 72, 66, 61], [101, 98, 83, 79, 74, 72, 66, 61], [100, 99, 94, 81, 79, 75, 73, 72, 61], [101, 99, 95, 94, 81, 79, 75, 72, 61], [100, 82, 79, 75, 72, 66, 61], [101, 99, 96, 93, 92, 80, 74, 73, 72, 68], [99, 98, 95, 86, 83, 82, 81, 79, 61], [96, 95, 94, 93, 91, 86, 82, 81, 80, 79, 77, 75, 70], [99, 96, 93, 91, 87, 73, 72, 70, 69], [96, 95, 94, 93, 91, 89, 82, 80, 79, 72, 70], [79, 74, 72, 61], [93, 89, 80, 79, 77, 76, 72, 66], [98, 91, 90, 89, 82, 81, 66], [96, 93, 92, 89, 87, 86, 82, 79, 73], [98, 95, 93, 91, 87, 86, 82, 79, 73], [98, 94, 93, 91, 89, 85, 80, 79, 72], [95, 94, 93, 91, 88, 86, 83, 76, 75], [96, 93, 91, 89, 80, 70], [100, 99, 94, 91, 89, 86, 85, 84, 80], [97, 96, 94, 93, 90, 85, 72], [89, 87, 86, 82, 70], [93, 92, 91, 90, 86, 85, 80], [96, 95, 94, 92, 86, 85, 84], [100, 94, 91, 88, 87, 79], [94, 91, 89, 87, 86, 79], [94, 81, 75], [97, 92, 90, 85, 84], [98, 95, 92, 85, 84], [88, 86, 84], [90, 88, 85], [97, 95, 84], [89, 84], [87, 85], [90, 84], [95, 88], [84], [87], [88], [85], [89], [102], [102], [102], [102], [102], [102], [102], [102], [102], [102], [102], [102], [102], [102], [102], [102], [102], [102], []]
letting durations = [[0], [1, 3, 8], [1, 2, 8], [1, 2, 3], [2, 3, 5], [3, 7, 10], [3, 4, 10], [2, 8, 9], [1, 3, 4], [2, 4, 8], [3, 6, 7], [1, 4, 8], [4, 5, 7], [4, 6, 8], [2, 7, 8], [1, 2, 10], [3, 5, 6], [6, 9, 10], [4, 5, 8], [8, 9, 10], [1, 6, 9], [8, 9, 10], [4, 5, 8], [1, 8, 9], [4, 5, 9], [1, 2, 9], [3, 7, 8], [4, 9, 10], [1, 6, 7], [4, 6, 7], [5, 7, 8], [2, 5, 10], [8, 9, 10], [8, 9, 10], [3, 6, 10], [8, 9, 10], [1, 5, 6], [4, 5, 10], [5, 9, 10], [5, 8, 10], [2, 5, 7], [1, 5, 9], [3, 4, 7], [4, 5, 9], [1, 4, 8], [3, 4, 6], [3, 4, 7], [4, 7, 8], [2, 8, 9], [1, 2, 3], [6, 7, 8], [2, 7, 9], [3, 8, 10], [5, 8, 10], [4, 6, 10], [1, 5, 9], [5, 6, 8], [2, 4, 8], [2, 3, 6], [7, 8, 9], [1, 8, 9], [4, 5, 10], [1, 4, 5], [3, 6, 8], [3, 6, 8], [1, 2, 6], [2, 4, 9], [1, 2, 3], [2, 7, 9], [1, 2, 4], [5, 6, 7], [4, 9, 10], [6, 9, 10], [1, 9, 10], [1, 2, 3], [2, 8, 9], [3, 4, 8], [1, 8, 9], [4, 7, 8], [5, 6, 10], [3, 6, 8], [6, 8, 9], [4, 5, 8], [2, 5, 7], [4, 5, 7], [1, 9, 10], [3, 4, 5], [2, 7, 8], [6, 7, 8], [5, 6, 8], [1, 3, 8], [2, 4, 10], [1, 9, 10], [3, 8, 10], [7, 8, 10], [1, 2, 5], [1, 4, 5], [1, 7, 8], [3, 7, 9], [3, 4, 9], [1, 6, 8], [0]]
letting resourceUsage = [[[0, 0, 0, 0]], [[1, 5, 4, 9], [1, 4, 3, 8], [1, 3, 3, 8]], [[2, 5, 10, 7], [2, 5, 9, 7], [2, 5, 8, 7]], [[2, 4, 4, 5], [2, 4, 3, 5], [2, 3, 2, 5]], [[3, 4, 7, 6], [3, 3, 6, 6], [3, 1, 5, 5]], [[4, 4, 7, 8], [3, 3, 7, 6], [2, 3, 7, 4]], [[5, 4, 4, 3], [5, 3, 4, 3], [5, 3, 4, 2]], [[2, 3, 8, 8], [1, 1, 6, 9], [1, 1, 6, 8]], [[5, 5, 7, 7], [5, 4, 7, 4], [5, 3, 7, 1]], [[1, 3, 4, 6], [1, 3, 4, 5], [1, 2, 2, 5]], [[5, 2, 7, 6], [3, 2, 4, 5], [3, 2, 3, 3]], [[4, 4, 10, 2], [3, 3, 4, 2], [3, 3, 2, 2]], [[4, 3, 6, 7], [4, 2, 6, 3], [4, 2, 6, 2]], [[4, 5, 7, 6], [2, 3, 6, 5], [1, 3, 6, 3]], [[3, 2, 9, 8], [2, 2, 5, 4], [2, 2, 1, 4]], [[1, 1, 7, 4], [1, 1, 6, 4], [1, 1, 6, 3]], [[4, 3, 5, 6], [3, 2, 4, 4], [3, 2, 1, 4]], [[3, 3, 8, 8], [3, 3, 6, 4], [1, 3, 5, 4]], [[3, 2, 9, 5], [2, 1, 9, 5], [2, 1, 9, 4]], [[5, 2, 10, 9], [3, 2, 6, 9], [2, 2, 4, 8]], [[2, 4, 7, 10], [1, 4, 6, 9], [1, 3, 5, 8]], [[5, 4, 9, 8], [5, 3, 8, 8], [5, 1, 8, 5]], [[5, 4, 1, 8], [5, 4, 1, 6], [5, 2, 1, 5]], [[4, 4, 7, 6], [3, 3, 5, 4], [3, 3, 1, 2]], [[3, 4, 9, 6], [3, 3, 6, 4], [1, 3, 3, 4]], [[4, 5, 4, 1], [3, 4, 3, 2], [3, 4, 3, 1]], [[2, 3, 4, 10], [2, 3, 2, 8], [2, 1, 2, 5]], [[4, 3, 5, 7], [4, 3, 4, 5], [4, 3, 2, 3]], [[5, 4, 8, 2], [5, 4, 7, 2], [5, 4, 6, 1]], [[4, 4, 10, 7], [3, 3, 8, 5], [1, 2, 7, 1]], [[3, 1, 6, 6], [3, 1, 6, 5], [3, 1, 3, 5]], [[3, 4, 8, 8], [2, 4, 8, 5], [1, 3, 6, 2]], [[4, 4, 5, 7], [3, 2, 3, 5], [3, 1, 3, 5]], [[4, 3, 6, 10], [2, 3, 4, 7], [1, 3, 1, 6]], [[5, 3, 1, 6], [4, 2, 1, 5], [4, 2, 1, 4]], [[3, 3, 8, 2], [2, 2, 8, 2], [1, 2, 7, 2]], [[1, 2, 6, 9], [1, 2, 5, 7], [1, 2, 3, 6]], [[3, 3, 8, 9], [3, 3, 6, 7], [2, 3, 5, 5]], [[1, 4, 8, 10], [1, 3, 7, 6], [1, 3, 5, 5]], [[3, 1, 4, 10], [2, 1, 4, 10], [2, 1, 4, 9]], [[3, 2, 10, 6], [3, 2, 6, 3], [3, 2, 1, 2]], [[3, 4, 6, 4], [3, 4, 6, 3], [3, 4, 2, 4]], [[4, 5, 8, 4], [4, 3, 6, 3], [3, 2, 5, 3]], [[4, 3, 8, 3], [3, 3, 7, 2], [3, 1, 6, 2]], [[4, 3, 4, 5], [4, 3, 4, 4], [3, 3, 4, 5]], [[4, 5, 8, 4], [3, 4, 7, 2], [3, 3, 7, 1]], [[3, 1, 8, 7], [2, 1, 8, 6], [1, 1, 7, 6]], [[3, 4, 9, 9], [3, 4, 7, 9], [1, 4, 7, 9]], [[1, 3, 9, 7], [1, 2, 8, 6], [1, 2, 4, 5]], [[3, 3, 3, 3], [3, 3, 2, 3], [3, 3, 2, 2]], [[3, 5, 8, 10], [2, 4, 7, 8], [2, 4, 6, 7]], [[4, 5, 9, 3], [3, 3, 7, 2], [2, 2, 7, 2]], [[4, 2, 8, 8], [3, 2, 6, 4], [3, 1, 5, 2]], [[5, 2, 4, 4], [3, 2, 4, 4], [2, 2, 2, 1]], [[3, 3, 10, 9], [2, 2, 7, 9], [2, 2, 3, 8]], [[2, 2, 9, 4], [2, 1, 5, 3], [2, 1, 2, 3]], [[5, 2, 10, 7], [4, 2, 8, 5], [4, 2, 7, 3]], [[3, 3, 3, 6], [3, 3, 2, 5], [1, 2, 2, 5]], [[5, 3, 2, 9], [4, 2, 2, 6], [4, 2, 1, 5]], [[4, 1, 6, 6], [4, 1, 6, 5], [4, 1, 6, 4]], [[4, 4, 9, 4], [4, 3, 5, 3], [4, 3, 3, 2]], [[2, 3, 9, 5], [2, 2, 6, 3], [2, 1, 5, 3]], [[4, 4, 6, 6], [3, 3, 3, 2], [2, 3, 3, 1]], [[5, 4, 4, 2], [5, 4, 4, 1], [5, 3, 4, 1]], [[2, 4, 10, 5], [1, 4, 5, 4], [1, 4, 2, 4]], [[3, 1, 7, 4], [3, 1, 5, 4], [3, 1, 4, 4]], [[2, 2, 8, 10], [2, 1, 7, 6], [2, 1, 5, 5]], [[3, 2, 10, 9], [2, 1, 9, 5], [1, 1, 7, 4]], [[4, 3, 6, 7], [2, 3, 4, 7], [2, 3, 2, 7]], [[3, 4, 5, 4], [2, 4, 4, 4], [2, 3, 4, 4]], [[5, 3, 9, 8], [3, 2, 9, 8], [3, 2, 8, 8]], [[2, 2, 5, 7], [2, 2, 4, 7], [2, 2, 3, 7]], [[3, 4, 4, 4], [3, 4, 3, 4], [3, 4, 2, 4]], [[1, 4, 7, 5], [1, 4, 4, 4], [1, 3, 4, 4]], [[5, 3, 8, 9], [4, 3, 7, 7], [4, 2, 6, 5]], [[3, 3, 10, 1], [3, 1, 10, 1], [2, 1, 10, 1]], [[3, 5, 6, 2], [2, 5, 3, 2], [2, 5, 3, 1]], [[1, 4, 6, 10], [1, 3, 3, 9], [1, 2, 2, 9]], [[2, 2, 7, 9], [2, 2, 6, 6], [1, 2, 4, 6]], [[4, 2, 2, 6], [3, 1, 2, 5], [2, 1, 2, 5]], [[3, 1, 6, 5], [2, 1, 6, 5], [1, 1, 6, 5]], [[5, 2, 5, 9], [4, 1, 4, 7], [3, 1, 3, 3]], [[5, 4, 5, 4], [3, 3, 5, 2], [3, 3, 5, 1]], [[4, 4, 8, 6], [2, 3, 6, 6], [2, 3, 3, 4]], [[5, 2, 10, 8], [4, 2, 8, 6], [4, 1, 6, 2]], [[3, 4, 8, 8], [1, 3, 6, 7], [1, 3, 6, 6]], [[3, 2, 9, 9], [1, 2, 8, 6], [1, 2, 8, 5]], [[4, 3, 4, 1], [4, 2, 4, 1], [3, 2, 3, 1]], [[1, 4, 6, 9], [1, 3, 6, 7], [1, 3, 6, 6]], [[4, 5, 1, 8], [3, 5, 1, 6], [3, 5, 1, 5]], [[3, 3, 10, 7], [2, 3, 9, 4], [2, 2, 7, 4]], [[4, 4, 4, 6], [4, 4, 3, 6], [4, 3, 3, 6]], [[3, 4, 6, 7], [3, 3, 3, 6], [1, 2, 2, 1]], [[2, 3, 6, 5], [1, 2, 5, 5], [1, 2, 3, 3]], [[4, 5, 5, 8], [3, 5, 4, 7], [3, 5, 4, 6]], [[4, 3, 1, 10], [4, 3, 1, 9], [3, 2, 1, 9]], [[2, 5, 7, 6], [1, 4, 6, 4], [1, 4, 5, 4]], [[5, 4, 9, 4], [4, 3, 7, 4], [4, 2, 4, 4]], [[1, 3, 2, 9], [1, 2, 2, 8], [1, 2, 2, 7]], [[5, 4, 4, 6], [3, 3, 4, 6], [3, 3, 3, 5]], [[3, 4, 8, 9], [3, 3, 7, 8], [3, 3, 7, 7]], [[0, 0, 0, 0]]]
